(set-logic QF_LRA)
(declare-fun x0 () Real)
(declare-fun x1 () Real)
(declare-fun x2 () Real)
(declare-fun x3 () Real)
(declare-fun x4 () Real)
(declare-fun x5 () Real)
(declare-fun x6 () Real)
(declare-fun x7 () Real)
(declare-fun x8 () Real)
(declare-fun x9 () Real)
(declare-fun A0 () Bool)
(declare-fun A1 () Bool)
(declare-fun A3 () Bool)
(declare-fun A4 () Bool)
(declare-fun A5 () Bool)
(declare-fun A7 () Bool)
(declare-fun A8 () Bool)
(assert (let ((.def_0 (* 519597529769916.0 x3))) (let ((.def_1 (* 1487339881979598.0 x5))) (let ((.def_2 (+ .def_1 .def_0))) (let ((.def_3 (* 942448329829752.0 x4))) (let ((.def_4 (+ .def_3 .def_2))) (let ((.def_5 (* (- 3549858263442768.0) x1))) (let ((.def_6 (+ .def_5 .def_4))) (let ((.def_7 (* (- 2063603408007257.0) x8))) (let ((.def_8 (+ .def_7 .def_6))) (let ((.def_9 (* 2829604246474502.0 x0))) (let ((.def_10 (+ .def_9 .def_8))) (let ((.def_11 (* (- 1064500579573216.0) x7))) (let ((.def_12 (+ .def_11 .def_10))) (let ((.def_13 (* (- 2258075766163771.0) x9))) (let ((.def_14 (+ .def_13 .def_12))) (let ((.def_15 (* 2702357526993475.0 x6))) (let ((.def_16 (+ .def_15 .def_14))) (let ((.def_17 (* 3108882555848818.0 x2))) (let ((.def_18 (+ .def_17 .def_16))) (let ((.def_19 (<= .def_18 8655864272545992.0))) (let ((.def_20 (* (- 4140647333024197.0) x8))) (let ((.def_21 (* 986491765058516.0 x2))) (let ((.def_22 (+ .def_21 .def_20))) (let ((.def_23 (<= .def_22 (- 4031471347567696.0)))) (let ((.def_24 (and .def_23 .def_19 true))) (let ((.def_25 (* 2656521000331193.0 x3))) (let ((.def_26 (* 3641536000800525.0 x4))) (let ((.def_27 (+ .def_26 .def_25))) (let ((.def_28 (* 232008652426846.0 x1))) (let ((.def_29 (+ .def_28 .def_27))) (let ((.def_30 (* 2320766429678742.0 x8))) (let ((.def_31 (+ .def_30 .def_29))) (let ((.def_32 (* (- 3751981397443736.0) x0))) (let ((.def_33 (+ .def_32 .def_31))) (let ((.def_34 (* (- 3066124778095539.0) x7))) (let ((.def_35 (+ .def_34 .def_33))) (let ((.def_36 (* (- 2910473808135292.0) x6))) (let ((.def_37 (+ .def_36 .def_35))) (let ((.def_38 (* 4314891796751192.0 x2))) (let ((.def_39 (+ .def_38 .def_37))) (let ((.def_40 (<= .def_39 (- 6631868499810280.0)))) (let ((.def_41 (not .def_40))) (let ((.def_42 (and .def_41 .def_24))) (let ((.def_43 (and A0 true))) (let ((.def_44 (not A7))) (let ((.def_45 (and .def_44 A3 true))) (let ((.def_46 (not A0))) (let ((.def_47 (and .def_46 .def_45))) (let ((.def_48 (or .def_47 .def_43))) (let ((.def_49 (and .def_40 .def_19 .def_48))) (let ((.def_50 (or .def_49 .def_42))) (let ((.def_51 (not A8))) (let ((.def_52 (and .def_51 .def_50))) (let ((.def_53 (not .def_19))) (let ((.def_54 (not .def_23))) (let ((.def_55 (and .def_54 A7 .def_41 .def_53 true))) (let ((.def_56 (and A7 true))) (let ((.def_57 (not A3))) (let ((.def_58 (and .def_57 .def_41 true))) (let ((.def_59 (and .def_44 .def_58))) (let ((.def_60 (or .def_59 .def_56))) (let ((.def_61 (and .def_19 .def_60))) (let ((.def_62 (or .def_61 .def_55))) (let ((.def_63 (and A8 .def_62))) (let ((.def_64 (or .def_63 .def_52))) (let ((.def_65 (and A5 .def_64))) (let ((.def_66 (and .def_46 A3 true))) (let ((.def_67 (and A8 A3 true))) (let ((.def_68 (and A0 .def_67))) (let ((.def_69 (or .def_68 .def_66))) (let ((.def_70 (and .def_40 .def_19 .def_69))) (let ((.def_71 (or .def_42 .def_70))) (let ((.def_72 (not A5))) (let ((.def_73 (and .def_72 .def_71))) (let ((.def_74 (or .def_73 .def_65))) (let ((.def_75 (and A4 .def_74))) (let ((.def_76 (and .def_19 true))) (let ((.def_77 (and .def_72 .def_76))) (let ((.def_78 (and .def_51 .def_76))) (let ((.def_79 (and .def_54 A1 A7 .def_41 .def_53 true))) (let ((.def_80 (and A8 .def_79))) (let ((.def_81 (or .def_80 .def_78))) (let ((.def_82 (and A5 .def_81))) (let ((.def_83 (or .def_82 .def_77))) (let ((.def_84 (not A4))) (let ((.def_85 (and .def_84 .def_83))) (let ((.def_86 (or .def_85 .def_75))) (let ((.def_87 (* 1505232038581193.0 x3))) (let ((.def_88 (* (- 2680348619064836.0) x1))) (let ((.def_89 (+ .def_88 .def_87))) (let ((.def_90 (* (- 2986800263796319.0) x7))) (let ((.def_91 (+ .def_90 .def_89))) (let ((.def_92 (* 4208802008748587.0 x9))) (let ((.def_93 (+ .def_92 .def_91))) (let ((.def_94 (* (- 4036407968220315.0) x6))) (let ((.def_95 (+ .def_94 .def_93))) (let ((.def_96 (* 1950414245291689.0 x2))) (let ((.def_97 (+ .def_96 .def_95))) (let ((.def_98 (<= .def_97 5973863074294072.0))) (let ((.def_99 (and .def_98 .def_86))) (let ((.def_100 (not .def_98))) (let ((.def_101 (and .def_54 .def_41 .def_100 .def_19 true))) (let ((.def_102 (or .def_101 .def_99))) (let ((.def_103 (<= 0.0 x0))) (let ((.def_104 (<= x0 1.0))) (let ((.def_105 (<= 0.0 x1))) (let ((.def_106 (<= x1 1.0))) (let ((.def_107 (<= 0.0 x2))) (let ((.def_108 (<= x2 1.0))) (let ((.def_109 (<= 0.0 x3))) (let ((.def_110 (<= x3 1.0))) (let ((.def_111 (<= 0.0 x4))) (let ((.def_112 (<= x4 1.0))) (let ((.def_113 (<= 0.0 x5))) (let ((.def_114 (<= x5 1.0))) (let ((.def_115 (<= 0.0 x6))) (let ((.def_116 (<= x6 1.0))) (let ((.def_117 (<= 0.0 x7))) (let ((.def_118 (<= x7 1.0))) (let ((.def_119 (<= 0.0 x8))) (let ((.def_120 (<= x8 1.0))) (let ((.def_121 (<= 0.0 x9))) (let ((.def_122 (<= x9 1.0))) (let ((.def_123 (* 2584265638637329.0 x5))) (let ((.def_124 (* 1977172240823359.0 x7))) (let ((.def_125 (+ .def_124 .def_123))) (let ((.def_126 (<= .def_125 (- 7816490060125688.0)))) (let ((.def_127 (not .def_126))) (let ((.def_128 (* 2694790729507116.0 x3))) (let ((.def_129 (* 1776593784573500.0 x0))) (let ((.def_130 (+ .def_129 .def_128))) (let ((.def_131 (* (- 1545518385010791.0) x7))) (let ((.def_132 (+ .def_131 .def_130))) (let ((.def_133 (* (- 3200026025595159.0) x9))) (let ((.def_134 (+ .def_133 .def_132))) (let ((.def_135 (* 3685337395972665.0 x2))) (let ((.def_136 (+ .def_135 .def_134))) (let ((.def_137 (<= .def_136 17517262678673790.0))) (let ((.def_138 (and .def_137 .def_127 .def_122 .def_121 .def_120 .def_119 .def_118 .def_117 .def_116 .def_115 .def_114 .def_113 .def_112 .def_111 .def_110 .def_109 .def_108 .def_107 .def_106 .def_105 .def_104 .def_103 .def_102))) .def_138))))))))))))))))))))))))))))))))))))))))))))))))))))))))))))))))))))))))))))))))))))))))))))))))))))))))))))))))))))))))))))))))))))))))))))
(check-sat)
